53242 -1 31568 181060 54482 0.98
53638 -1 31345 176465 55244 1
53560 -1 41028 229418 55582 0.94
53500 -1 33210 188334 55980 0.94
53442 -1 43581 244837 54774 1
53560 -1 30495 173185 56502 0.98
53572 -1 32609 187510 55472 0.98
53458 -1 38087 213268 55802 0.98
53352 -1 42073 235922 54844 0.94
53442 -1 28120 170903 56092 0.98
